c File: data_files/evolved_graphs/g3620.col
c
c Auto generated graph
c
p edge 100 1981
e 1 5
e 1 6
e 1 7
e 1 8
e 1 28
e 1 41
e 1 64
e 2 3
e 2 4
e 2 6
e 2 8
e 2 100
e 3 5
e 3 7
e 3 8
e 3 15
e 3 18
e 3 45
e 3 53
e 3 77
e 4 5
e 4 6
e 4 8
e 4 11
e 4 12
e 4 24
e 4 67
e 4 87
e 5 6
e 5 8
e 5 22
e 5 52
e 5 70
e 5 90
e 6 9
e 6 17
e 6 46
e 6 47
e 6 62
e 6 73
e 6 92
e 7 15
e 7 59
e 7 69
e 8 80
e 8 99
e 9 10
e 9 11
e 9 12
e 9 13
e 9 14
e 9 15
e 9 16
e 9 18
e 9 38
e 9 69
e 9 100
e 10 11
e 10 12
e 10 13
e 10 14
e 10 15
e 10 16
e 10 17
e 10 18
e 10 21
e 10 22
e 10 25
e 10 26
e 10 27
e 10 28
e 10 29
e 10 31
e 10 35
e 10 38
e 10 40
e 10 41
e 10 44
e 10 47
e 10 50
e 10 55
e 10 56
e 10 60
e 10 61
e 10 64
e 10 68
e 10 70
e 10 72
e 10 73
e 10 76
e 10 77
e 10 78
e 10 83
e 10 85
e 10 87
e 10 88
e 10 89
e 10 95
e 10 96
e 10 97
e 10 98
e 10 100
e 11 12
e 11 13
e 11 14
e 11 15
e 11 16
e 11 17
e 11 18
e 11 19
e 11 21
e 11 22
e 11 23
e 11 26
e 11 30
e 11 31
e 11 32
e 11 35
e 11 36
e 11 37
e 11 38
e 11 39
e 11 45
e 11 46
e 11 49
e 11 50
e 11 52
e 11 55
e 11 56
e 11 58
e 11 61
e 11 63
e 11 64
e 11 66
e 11 69
e 11 75
e 11 78
e 11 80
e 11 81
e 11 82
e 11 93
e 11 94
e 11 99
e 12 13
e 12 14
e 12 15
e 12 19
e 12 20
e 12 21
e 12 23
e 12 25
e 12 26
e 12 27
e 12 29
e 12 30
e 12 31
e 12 32
e 12 33
e 12 34
e 12 35
e 12 36
e 12 39
e 12 43
e 12 45
e 12 48
e 12 49
e 12 51
e 12 52
e 12 53
e 12 54
e 12 55
e 12 58
e 12 59
e 12 61
e 12 65
e 12 66
e 12 67
e 12 69
e 12 70
e 12 71
e 12 72
e 12 74
e 12 76
e 12 78
e 12 79
e 12 82
e 12 83
e 12 85
e 12 86
e 12 87
e 12 88
e 12 91
e 12 93
e 12 94
e 12 95
e 12 98
e 12 99
e 13 14
e 13 15
e 13 16
e 13 17
e 13 18
e 13 20
e 13 21
e 13 28
e 13 31
e 13 34
e 13 35
e 13 36
e 13 38
e 13 39
e 13 42
e 13 43
e 13 45
e 13 47
e 13 48
e 13 50
e 13 51
e 13 52
e 13 53
e 13 56
e 13 58
e 13 59
e 13 60
e 13 61
e 13 63
e 13 65
e 13 66
e 13 68
e 13 69
e 13 71
e 13 72
e 13 73
e 13 76
e 13 78
e 13 79
e 13 83
e 13 84
e 13 87
e 13 88
e 13 89
e 13 91
e 13 92
e 13 94
e 13 95
e 13 96
e 13 98
e 13 99
e 13 100
e 14 15
e 14 16
e 14 17
e 14 18
e 14 19
e 14 21
e 14 23
e 14 26
e 14 27
e 14 29
e 14 30
e 14 32
e 14 36
e 14 41
e 14 44
e 14 45
e 14 46
e 14 49
e 14 51
e 14 52
e 14 54
e 14 57
e 14 58
e 14 60
e 14 61
e 14 62
e 14 64
e 14 67
e 14 69
e 14 70
e 14 73
e 14 74
e 14 76
e 14 78
e 14 79
e 14 82
e 14 83
e 14 84
e 14 86
e 14 87
e 14 88
e 14 89
e 14 91
e 14 92
e 14 98
e 14 99
e 15 16
e 15 17
e 15 20
e 15 21
e 15 23
e 15 29
e 15 31
e 15 32
e 15 36
e 15 37
e 15 39
e 15 40
e 15 42
e 15 45
e 15 48
e 15 50
e 15 52
e 15 53
e 15 54
e 15 55
e 15 57
e 15 58
e 15 59
e 15 60
e 15 61
e 15 62
e 15 63
e 15 66
e 15 67
e 15 70
e 15 71
e 15 73
e 15 75
e 15 76
e 15 81
e 15 87
e 15 90
e 15 94
e 15 95
e 15 96
e 15 98
e 15 99
e 15 100
e 16 17
e 16 18
e 16 19
e 16 21
e 16 23
e 16 25
e 16 26
e 16 27
e 16 29
e 16 30
e 16 32
e 16 34
e 16 36
e 16 39
e 16 40
e 16 44
e 16 46
e 16 48
e 16 52
e 16 53
e 16 54
e 16 55
e 16 58
e 16 59
e 16 60
e 16 64
e 16 65
e 16 66
e 16 69
e 16 71
e 16 74
e 16 76
e 16 77
e 16 78
e 16 80
e 16 81
e 16 82
e 16 83
e 16 85
e 16 86
e 16 88
e 16 89
e 16 90
e 16 92
e 16 93
e 16 94
e 16 97
e 16 98
e 16 99
e 17 18
e 17 19
e 17 20
e 17 21
e 17 22
e 17 23
e 17 24
e 17 25
e 17 26
e 17 28
e 17 29
e 17 31
e 17 33
e 17 38
e 17 40
e 17 41
e 17 43
e 17 46
e 17 47
e 17 48
e 17 50
e 17 54
e 17 60
e 17 62
e 17 63
e 17 64
e 17 66
e 17 68
e 17 69
e 17 73
e 17 74
e 17 78
e 17 79
e 17 80
e 17 81
e 17 82
e 17 86
e 17 87
e 17 92
e 17 93
e 17 94
e 17 95
e 17 99
e 17 100
e 18 19
e 18 20
e 18 21
e 18 23
e 18 25
e 18 28
e 18 29
e 18 30
e 18 31
e 18 35
e 18 36
e 18 38
e 18 39
e 18 40
e 18 42
e 18 43
e 18 47
e 18 51
e 18 52
e 18 53
e 18 55
e 18 56
e 18 60
e 18 61
e 18 62
e 18 63
e 18 65
e 18 66
e 18 67
e 18 68
e 18 69
e 18 70
e 18 71
e 18 72
e 18 73
e 18 74
e 18 75
e 18 78
e 18 80
e 18 81
e 18 82
e 18 83
e 18 87
e 18 88
e 18 89
e 18 90
e 18 92
e 18 94
e 18 95
e 18 96
e 18 97
e 18 100
e 19 24
e 19 26
e 19 27
e 19 30
e 19 32
e 19 33
e 19 34
e 19 36
e 19 37
e 19 41
e 19 43
e 19 45
e 19 46
e 19 48
e 19 49
e 19 50
e 19 52
e 19 53
e 19 54
e 19 55
e 19 56
e 19 60
e 19 61
e 19 63
e 19 66
e 19 70
e 19 73
e 19 81
e 19 82
e 19 83
e 19 85
e 19 87
e 19 93
e 19 94
e 19 97
e 19 98
e 19 99
e 19 100
e 20 24
e 20 26
e 20 27
e 20 28
e 20 29
e 20 30
e 20 31
e 20 32
e 20 33
e 20 34
e 20 38
e 20 39
e 20 42
e 20 44
e 20 46
e 20 48
e 20 50
e 20 52
e 20 53
e 20 54
e 20 55
e 20 56
e 20 58
e 20 60
e 20 63
e 20 64
e 20 65
e 20 66
e 20 67
e 20 71
e 20 73
e 20 75
e 20 79
e 20 81
e 20 84
e 20 85
e 20 87
e 20 88
e 20 90
e 20 99
e 21 23
e 21 25
e 21 26
e 21 28
e 21 33
e 21 34
e 21 35
e 21 37
e 21 38
e 21 39
e 21 40
e 21 44
e 21 49
e 21 51
e 21 52
e 21 53
e 21 55
e 21 58
e 21 59
e 21 60
e 21 61
e 21 64
e 21 65
e 21 68
e 21 82
e 21 83
e 21 92
e 21 94
e 21 98
e 22 23
e 22 25
e 22 26
e 22 29
e 22 30
e 22 32
e 22 33
e 22 34
e 22 35
e 22 39
e 22 42
e 22 43
e 22 44
e 22 45
e 22 48
e 22 51
e 22 52
e 22 55
e 22 58
e 22 59
e 22 66
e 22 67
e 22 72
e 22 73
e 22 77
e 22 79
e 22 82
e 22 83
e 22 89
e 22 92
e 22 93
e 22 94
e 22 95
e 22 97
e 22 99
e 22 100
e 23 25
e 23 26
e 23 27
e 23 29
e 23 30
e 23 32
e 23 34
e 23 35
e 23 37
e 23 38
e 23 41
e 23 42
e 23 43
e 23 47
e 23 49
e 23 51
e 23 52
e 23 57
e 23 59
e 23 60
e 23 63
e 23 65
e 23 66
e 23 69
e 23 73
e 23 80
e 23 81
e 23 82
e 23 85
e 23 86
e 23 93
e 23 95
e 23 98
e 23 99
e 23 100
e 24 27
e 24 28
e 24 32
e 24 33
e 24 34
e 24 43
e 24 46
e 24 48
e 24 51
e 24 52
e 24 54
e 24 55
e 24 58
e 24 59
e 24 60
e 24 61
e 24 64
e 24 65
e 24 66
e 24 71
e 24 72
e 24 73
e 24 79
e 24 81
e 24 82
e 24 85
e 24 88
e 24 92
e 24 93
e 24 94
e 24 97
e 24 98
e 24 100
e 25 26
e 25 27
e 25 28
e 25 29
e 25 33
e 25 38
e 25 40
e 25 41
e 25 43
e 25 44
e 25 45
e 25 47
e 25 48
e 25 49
e 25 50
e 25 51
e 25 52
e 25 54
e 25 55
e 25 58
e 25 59
e 25 60
e 25 61
e 25 62
e 25 66
e 25 68
e 25 69
e 25 70
e 25 71
e 25 79
e 25 81
e 25 83
e 25 91
e 25 93
e 25 96
e 25 97
e 26 27
e 26 31
e 26 35
e 26 36
e 26 37
e 26 38
e 26 39
e 26 41
e 26 42
e 26 43
e 26 47
e 26 50
e 26 51
e 26 52
e 26 54
e 26 56
e 26 60
e 26 62
e 26 63
e 26 64
e 26 67
e 26 68
e 26 69
e 26 79
e 26 84
e 26 85
e 26 87
e 26 88
e 26 89
e 26 94
e 26 97
e 26 98
e 26 100
e 27 32
e 27 35
e 27 37
e 27 38
e 27 39
e 27 41
e 27 42
e 27 44
e 27 45
e 27 48
e 27 52
e 27 53
e 27 54
e 27 55
e 27 56
e 27 61
e 27 63
e 27 66
e 27 67
e 27 68
e 27 69
e 27 71
e 27 72
e 27 76
e 27 78
e 27 79
e 27 81
e 27 83
e 27 88
e 27 95
e 27 98
e 27 99
e 27 100
e 28 29
e 28 30
e 28 32
e 28 34
e 28 38
e 28 41
e 28 42
e 28 43
e 28 44
e 28 47
e 28 48
e 28 49
e 28 50
e 28 54
e 28 55
e 28 59
e 28 61
e 28 62
e 28 63
e 28 65
e 28 67
e 28 68
e 28 69
e 28 70
e 28 71
e 28 72
e 28 79
e 28 80
e 28 81
e 28 83
e 28 84
e 28 87
e 28 89
e 28 91
e 28 93
e 28 94
e 28 95
e 28 96
e 28 99
e 29 30
e 29 33
e 29 34
e 29 35
e 29 39
e 29 41
e 29 42
e 29 44
e 29 46
e 29 47
e 29 49
e 29 50
e 29 52
e 29 53
e 29 56
e 29 57
e 29 59
e 29 60
e 29 61
e 29 63
e 29 66
e 29 72
e 29 73
e 29 76
e 29 79
e 29 80
e 29 82
e 29 84
e 29 86
e 29 87
e 29 90
e 29 91
e 29 93
e 29 97
e 29 99
e 30 31
e 30 34
e 30 36
e 30 39
e 30 40
e 30 44
e 30 45
e 30 48
e 30 50
e 30 51
e 30 53
e 30 55
e 30 56
e 30 57
e 30 59
e 30 61
e 30 62
e 30 63
e 30 64
e 30 65
e 30 66
e 30 70
e 30 71
e 30 72
e 30 80
e 30 81
e 30 87
e 30 90
e 30 91
e 30 99
e 30 100
e 31 32
e 31 33
e 31 35
e 31 36
e 31 38
e 31 42
e 31 44
e 31 45
e 31 46
e 31 49
e 31 51
e 31 53
e 31 56
e 31 57
e 31 61
e 31 62
e 31 64
e 31 65
e 31 66
e 31 67
e 31 68
e 31 69
e 31 72
e 31 73
e 31 75
e 31 77
e 31 80
e 31 84
e 31 87
e 31 90
e 31 93
e 31 95
e 31 97
e 31 99
e 31 100
e 32 34
e 32 36
e 32 39
e 32 40
e 32 43
e 32 44
e 32 45
e 32 49
e 32 50
e 32 52
e 32 54
e 32 57
e 32 60
e 32 62
e 32 63
e 32 65
e 32 67
e 32 68
e 32 69
e 32 72
e 32 73
e 32 76
e 32 80
e 32 81
e 32 82
e 32 83
e 32 85
e 32 87
e 32 90
e 32 93
e 32 96
e 32 99
e 32 100
e 33 34
e 33 39
e 33 40
e 33 41
e 33 42
e 33 45
e 33 47
e 33 50
e 33 51
e 33 53
e 33 55
e 33 56
e 33 58
e 33 61
e 33 63
e 33 64
e 33 65
e 33 67
e 33 69
e 33 70
e 33 71
e 33 74
e 33 77
e 33 80
e 33 82
e 33 83
e 33 84
e 33 87
e 33 88
e 33 89
e 33 91
e 33 93
e 33 95
e 33 96
e 33 100
e 34 36
e 34 37
e 34 38
e 34 41
e 34 42
e 34 43
e 34 46
e 34 48
e 34 50
e 34 52
e 34 53
e 34 54
e 34 57
e 34 60
e 34 62
e 34 64
e 34 67
e 34 69
e 34 70
e 34 71
e 34 79
e 34 80
e 34 84
e 34 87
e 34 90
e 34 92
e 34 93
e 34 96
e 35 36
e 35 39
e 35 46
e 35 47
e 35 48
e 35 50
e 35 53
e 35 55
e 35 56
e 35 57
e 35 58
e 35 59
e 35 61
e 35 62
e 35 65
e 35 66
e 35 70
e 35 72
e 35 73
e 35 74
e 35 75
e 35 76
e 35 81
e 35 84
e 35 85
e 35 86
e 35 94
e 35 96
e 35 97
e 36 37
e 36 38
e 36 40
e 36 43
e 36 44
e 36 46
e 36 47
e 36 48
e 36 49
e 36 52
e 36 53
e 36 54
e 36 55
e 36 57
e 36 58
e 36 60
e 36 62
e 36 66
e 36 68
e 36 81
e 36 82
e 36 86
e 36 90
e 36 91
e 36 94
e 36 95
e 36 98
e 37 38
e 37 40
e 37 43
e 37 44
e 37 46
e 37 47
e 37 48
e 37 49
e 37 50
e 37 53
e 37 57
e 37 59
e 37 60
e 37 63
e 37 65
e 37 66
e 37 68
e 37 69
e 37 71
e 37 72
e 37 73
e 37 79
e 37 81
e 37 82
e 37 84
e 37 85
e 37 91
e 37 93
e 37 95
e 37 97
e 37 98
e 37 99
e 38 39
e 38 46
e 38 50
e 38 51
e 38 52
e 38 53
e 38 55
e 38 61
e 38 64
e 38 65
e 38 66
e 38 72
e 38 73
e 38 79
e 38 80
e 38 81
e 38 82
e 38 84
e 38 87
e 38 90
e 38 91
e 38 93
e 38 94
e 38 97
e 38 98
e 39 41
e 39 43
e 39 44
e 39 45
e 39 46
e 39 47
e 39 48
e 39 52
e 39 53
e 39 54
e 39 56
e 39 59
e 39 63
e 39 65
e 39 66
e 39 67
e 39 68
e 39 69
e 39 71
e 39 72
e 39 73
e 39 79
e 39 81
e 39 83
e 39 85
e 39 95
e 39 98
e 39 100
e 40 42
e 40 50
e 40 52
e 40 54
e 40 55
e 40 56
e 40 57
e 40 59
e 40 61
e 40 63
e 40 64
e 40 67
e 40 69
e 40 70
e 40 72
e 40 73
e 40 74
e 40 75
e 40 79
e 40 82
e 40 84
e 40 85
e 40 88
e 40 91
e 40 92
e 40 94
e 40 97
e 40 98
e 40 99
e 41 42
e 41 45
e 41 46
e 41 47
e 41 48
e 41 49
e 41 50
e 41 51
e 41 53
e 41 56
e 41 57
e 41 58
e 41 59
e 41 60
e 41 62
e 41 63
e 41 66
e 41 70
e 41 71
e 41 73
e 41 77
e 41 79
e 41 81
e 41 82
e 41 85
e 41 89
e 41 92
e 41 93
e 41 94
e 41 96
e 41 98
e 41 99
e 42 43
e 42 47
e 42 51
e 42 52
e 42 53
e 42 60
e 42 62
e 42 64
e 42 65
e 42 66
e 42 67
e 42 68
e 42 69
e 42 71
e 42 72
e 42 73
e 42 75
e 42 79
e 42 90
e 42 91
e 42 92
e 42 95
e 42 96
e 42 97
e 42 98
e 42 99
e 42 100
e 43 46
e 43 47
e 43 50
e 43 52
e 43 53
e 43 54
e 43 55
e 43 56
e 43 58
e 43 59
e 43 60
e 43 61
e 43 62
e 43 63
e 43 64
e 43 65
e 43 67
e 43 68
e 43 72
e 43 79
e 43 80
e 43 83
e 43 85
e 43 86
e 43 87
e 43 90
e 43 91
e 43 95
e 43 96
e 43 97
e 43 99
e 44 45
e 44 47
e 44 49
e 44 50
e 44 54
e 44 56
e 44 57
e 44 59
e 44 61
e 44 62
e 44 64
e 44 65
e 44 66
e 44 67
e 44 69
e 44 74
e 44 77
e 44 79
e 44 80
e 44 82
e 44 85
e 44 86
e 44 95
e 44 97
e 44 98
e 44 99
e 45 47
e 45 49
e 45 50
e 45 51
e 45 52
e 45 55
e 45 56
e 45 58
e 45 59
e 45 60
e 45 61
e 45 64
e 45 65
e 45 67
e 45 68
e 45 69
e 45 70
e 45 71
e 45 72
e 45 80
e 45 81
e 45 82
e 45 86
e 45 91
e 45 92
e 45 97
e 46 47
e 46 48
e 46 49
e 46 51
e 46 52
e 46 53
e 46 58
e 46 60
e 46 61
e 46 65
e 46 68
e 46 70
e 46 71
e 46 72
e 46 73
e 46 76
e 46 79
e 46 80
e 46 83
e 46 84
e 46 85
e 46 89
e 46 91
e 47 50
e 47 51
e 47 53
e 47 58
e 47 59
e 47 60
e 47 61
e 47 62
e 47 63
e 47 66
e 47 68
e 47 70
e 47 71
e 47 72
e 47 73
e 47 77
e 47 81
e 47 82
e 47 85
e 47 90
e 47 94
e 47 95
e 47 97
e 48 49
e 48 50
e 48 53
e 48 55
e 48 58
e 48 59
e 48 63
e 48 64
e 48 65
e 48 66
e 48 70
e 48 72
e 48 79
e 48 82
e 48 83
e 48 84
e 48 85
e 48 93
e 48 94
e 48 96
e 48 98
e 48 99
e 49 53
e 49 56
e 49 59
e 49 63
e 49 64
e 49 65
e 49 67
e 49 68
e 49 69
e 49 70
e 49 71
e 49 73
e 49 79
e 49 85
e 49 86
e 49 87
e 49 89
e 49 90
e 49 91
e 49 93
e 49 95
e 49 96
e 49 97
e 49 99
e 49 100
e 50 53
e 50 54
e 50 55
e 50 58
e 50 59
e 50 60
e 50 61
e 50 63
e 50 64
e 50 67
e 50 69
e 50 73
e 50 76
e 50 81
e 50 86
e 50 87
e 50 88
e 50 96
e 51 52
e 51 54
e 51 55
e 51 56
e 51 58
e 51 59
e 51 62
e 51 63
e 51 64
e 51 66
e 51 69
e 51 70
e 51 71
e 51 72
e 51 73
e 51 79
e 51 80
e 51 81
e 51 82
e 51 83
e 51 84
e 51 87
e 51 88
e 51 92
e 51 93
e 51 95
e 51 96
e 51 99
e 52 56
e 52 57
e 52 59
e 52 64
e 52 66
e 52 67
e 52 69
e 52 70
e 52 71
e 52 73
e 52 79
e 52 82
e 52 84
e 52 86
e 52 89
e 52 91
e 52 94
e 52 96
e 52 97
e 53 59
e 53 60
e 53 61
e 53 63
e 53 66
e 53 71
e 53 72
e 53 73
e 53 79
e 53 81
e 53 82
e 53 84
e 53 87
e 53 89
e 53 95
e 53 100
e 54 55
e 54 56
e 54 58
e 54 60
e 54 62
e 54 64
e 54 65
e 54 66
e 54 67
e 54 71
e 54 72
e 54 76
e 54 78
e 54 82
e 54 84
e 54 86
e 54 87
e 54 91
e 54 96
e 54 98
e 55 56
e 55 57
e 55 61
e 55 62
e 55 63
e 55 69
e 55 70
e 55 72
e 55 80
e 55 82
e 55 83
e 55 84
e 55 86
e 55 91
e 55 93
e 55 97
e 55 98
e 55 100
e 56 57
e 56 58
e 56 61
e 56 62
e 56 63
e 56 67
e 56 69
e 56 71
e 56 72
e 56 80
e 56 81
e 56 82
e 56 84
e 56 86
e 56 88
e 56 93
e 56 95
e 56 98
e 56 100
e 57 58
e 57 59
e 57 61
e 57 62
e 57 64
e 57 66
e 57 69
e 57 71
e 57 72
e 57 73
e 57 74
e 57 79
e 57 81
e 57 86
e 57 91
e 57 93
e 57 95
e 57 98
e 57 99
e 57 100
e 58 59
e 58 60
e 58 61
e 58 62
e 58 64
e 58 65
e 58 66
e 58 67
e 58 69
e 58 72
e 58 73
e 58 74
e 58 79
e 58 80
e 58 81
e 58 82
e 58 85
e 58 86
e 58 87
e 58 88
e 58 96
e 58 98
e 58 100
e 59 61
e 59 62
e 59 63
e 59 65
e 59 66
e 59 67
e 59 69
e 59 83
e 59 86
e 59 89
e 59 90
e 59 92
e 59 100
e 60 61
e 60 62
e 60 63
e 60 65
e 60 66
e 60 68
e 60 69
e 60 79
e 60 80
e 60 87
e 60 88
e 60 89
e 60 90
e 60 94
e 60 95
e 60 96
e 60 98
e 60 100
e 61 63
e 61 64
e 61 67
e 61 68
e 61 69
e 61 71
e 61 77
e 61 78
e 61 81
e 61 82
e 61 83
e 61 88
e 61 89
e 61 95
e 62 65
e 62 68
e 62 69
e 62 70
e 62 72
e 62 80
e 62 82
e 62 84
e 62 85
e 62 86
e 62 87
e 62 90
e 62 92
e 62 93
e 62 94
e 62 96
e 62 98
e 62 100
e 63 65
e 63 67
e 63 68
e 63 69
e 63 70
e 63 79
e 63 81
e 63 82
e 63 84
e 63 88
e 63 91
e 63 93
e 63 94
e 63 100
e 64 65
e 64 66
e 64 70
e 64 71
e 64 72
e 64 73
e 64 80
e 64 82
e 64 84
e 64 88
e 64 90
e 64 91
e 64 94
e 64 96
e 64 100
e 65 66
e 65 68
e 65 69
e 65 71
e 65 73
e 65 80
e 65 81
e 65 90
e 65 94
e 65 95
e 65 99
e 66 67
e 66 70
e 66 73
e 66 79
e 66 82
e 66 84
e 66 94
e 66 95
e 66 96
e 66 97
e 67 69
e 67 71
e 67 73
e 67 79
e 67 80
e 67 81
e 67 83
e 67 84
e 67 87
e 67 88
e 67 89
e 67 91
e 67 92
e 67 94
e 67 95
e 67 99
e 67 100
e 68 73
e 68 76
e 68 80
e 68 81
e 68 84
e 68 85
e 68 88
e 68 91
e 68 98
e 68 100
e 69 72
e 69 76
e 69 79
e 69 80
e 69 82
e 69 83
e 69 95
e 69 96
e 70 71
e 70 72
e 70 73
e 70 80
e 70 81
e 70 84
e 70 87
e 70 88
e 70 91
e 70 92
e 70 96
e 71 73
e 71 80
e 71 81
e 71 82
e 71 83
e 71 84
e 71 86
e 71 87
e 71 93
e 71 98
e 72 77
e 72 80
e 72 82
e 72 83
e 72 85
e 72 88
e 72 89
e 72 94
e 72 95
e 72 97
e 72 99
e 73 76
e 73 79
e 73 80
e 73 82
e 73 83
e 73 84
e 73 86
e 73 87
e 73 90
e 73 91
e 73 92
e 73 95
e 73 98
e 73 99
e 74 76
e 74 78
e 74 80
e 74 81
e 74 82
e 74 83
e 74 85
e 74 87
e 74 88
e 74 90
e 74 92
e 74 93
e 74 96
e 74 97
e 74 98
e 74 99
e 75 77
e 75 78
e 75 79
e 75 80
e 75 83
e 75 85
e 75 87
e 75 88
e 75 91
e 75 92
e 75 95
e 75 96
e 75 99
e 75 100
e 76 78
e 76 79
e 76 80
e 76 84
e 76 88
e 76 90
e 76 92
e 76 93
e 76 95
e 76 97
e 76 98
e 77 79
e 77 80
e 77 82
e 77 86
e 77 87
e 77 89
e 77 91
e 77 92
e 77 94
e 77 96
e 77 97
e 78 80
e 78 81
e 78 82
e 78 86
e 78 87
e 78 88
e 78 92
e 78 93
e 78 99
e 79 83
e 79 85
e 79 88
e 79 93
e 79 95
e 79 96
e 79 98
e 80 81
e 80 83
e 80 86
e 80 88
e 80 89
e 80 96
e 80 97
e 81 84
e 81 85
e 81 87
e 81 88
e 81 91
e 81 93
e 81 97
e 81 99
e 82 83
e 82 84
e 82 85
e 82 87
e 82 88
e 82 89
e 82 93
e 83 87
e 83 88
e 83 93
e 83 94
e 83 95
e 83 96
e 83 98
e 83 99
e 83 100
e 84 85
e 84 86
e 84 92
e 84 94
e 84 96
e 85 86
e 85 87
e 85 90
e 85 91
e 85 93
e 85 94
e 85 95
e 85 96
e 85 100
e 86 87
e 86 88
e 86 89
e 86 91
e 86 93
e 86 94
e 86 99
e 87 88
e 87 89
e 87 91
e 87 93
e 87 94
e 87 98
e 88 90
e 88 94
e 89 90
e 89 93
e 89 95
e 89 96
e 89 97
e 89 98
e 89 99
e 90 91
e 90 92
e 90 93
e 90 96
e 90 98
e 90 100
e 91 92
e 91 93
e 91 94
e 91 95
e 91 96
e 91 97
e 91 98
e 91 99
e 92 93
e 92 94
e 92 96
e 92 100
e 93 94
e 93 95
e 93 96
e 93 97
e 93 99
e 93 100
e 94 95
e 94 97
e 94 98
e 94 100
e 95 96
e 95 99
e 96 98
e 96 100
e 98 100
e 99 100
